(set-info :smt-lib-version 2.6)
(set-logic QF_NIA)
(set-info :source |
Generated by: Cristina Borralleras, Daniel Larraz, Albert Oliveras, Enric Rodriguez-Carbonell, Albert Rubio
Generated on: 2017-04-27
Generator: VeryMax
Application: Termination proving
Target solver: barcelogic
|)
(set-info :license "https://creativecommons.org/licenses/by/4.0/")
(set-info :category "industrial")
(set-info :status sat)
(declare-fun Nl2main_x1 () Int)
(declare-fun Nl2main_y1 () Int)
(declare-fun Nl2main_x2 () Int)
(declare-fun Nl2main_y2 () Int)
(declare-fun lam0n0 () Int)
(declare-fun lam0n1 () Int)
(declare-fun lam0n2 () Int)
(declare-fun lam0n3 () Int)
(declare-fun lam0n4 () Int)
(declare-fun lam0n5 () Int)
(declare-fun lam0n6 () Int)
(declare-fun lam0n7 () Int)
(declare-fun lam0n8 () Int)
(declare-fun Nl2CT1 () Int)
(declare-fun Nl2CT2 () Int)
(declare-fun lam1n0 () Int)
(declare-fun lam1n1 () Int)
(declare-fun lam1n2 () Int)
(declare-fun lam1n3 () Int)
(declare-fun lam1n4 () Int)
(declare-fun lam1n5 () Int)
(declare-fun lam1n6 () Int)
(declare-fun lam1n7 () Int)
(declare-fun lam1n8 () Int)
(declare-fun lam2n0 () Int)
(declare-fun lam2n1 () Int)
(declare-fun lam2n2 () Int)
(declare-fun lam2n3 () Int)
(declare-fun lam2n4 () Int)
(declare-fun lam2n5 () Int)
(declare-fun lam2n6 () Int)
(declare-fun lam2n7 () Int)
(declare-fun lam2n8 () Int)
(declare-fun lam3n0 () Int)
(declare-fun lam3n1 () Int)
(declare-fun lam4n0 () Int)
(declare-fun lam4n1 () Int)
(declare-fun main_x () Int)
(declare-fun undef3 () Int)
(declare-fun main_y () Int)
(declare-fun undef4 () Int)
(declare-fun FV_main_x_1 () Int)
(declare-fun FV_main_y_1 () Int)
(declare-fun lam5n0 () Int)
(declare-fun lam5n1 () Int)
(declare-fun lam5n2 () Int)
(declare-fun lam5n3 () Int)
(declare-fun lam5n4 () Int)
(declare-fun lam5n5 () Int)
(declare-fun lam6n0 () Int)
(declare-fun lam6n1 () Int)
(declare-fun lam6n2 () Int)
(declare-fun lam6n3 () Int)
(declare-fun lam6n4 () Int)
(declare-fun lam7n0 () Int)
(declare-fun lam7n1 () Int)
(declare-fun lam7n2 () Int)
(declare-fun lam7n3 () Int)
(declare-fun lam7n4 () Int)
(declare-fun lam7n5 () Int)
(declare-fun lam7n6 () Int)
(declare-fun lam8n0 () Int)
(declare-fun lam8n1 () Int)
(declare-fun lam8n2 () Int)
(declare-fun lam8n3 () Int)
(declare-fun lam8n4 () Int)
(declare-fun lam8n5 () Int)
(declare-fun lam9n0 () Int)
(declare-fun lam9n1 () Int)
(declare-fun lam9n2 () Int)
(declare-fun lam9n3 () Int)
(declare-fun lam9n4 () Int)
(declare-fun lam9n5 () Int)
(declare-fun lam9n6 () Int)
(declare-fun lam9n7 () Int)
(declare-fun lam10n0 () Int)
(declare-fun lam10n1 () Int)
(declare-fun lam10n2 () Int)
(declare-fun lam10n3 () Int)
(declare-fun lam10n4 () Int)
(declare-fun lam10n5 () Int)
(declare-fun lam10n6 () Int)
(declare-fun lam11n0 () Int)
(declare-fun lam11n1 () Int)
(declare-fun lam11n2 () Int)
(declare-fun lam11n3 () Int)
(declare-fun lam11n4 () Int)
(declare-fun lam11n5 () Int)
(declare-fun lam12n0 () Int)
(declare-fun lam12n1 () Int)
(declare-fun lam12n2 () Int)
(declare-fun lam12n3 () Int)
(declare-fun lam12n4 () Int)
(declare-fun lam12n5 () Int)
(declare-fun lam12n6 () Int)
(declare-fun lam12n7 () Int)
(declare-fun lam13n0 () Int)
(declare-fun lam13n1 () Int)
(declare-fun lam13n2 () Int)
(declare-fun lam13n3 () Int)
(declare-fun lam13n4 () Int)
(declare-fun lam13n5 () Int)
(declare-fun lam13n6 () Int)
(declare-fun lam14n0 () Int)
(declare-fun lam14n1 () Int)
(declare-fun lam14n2 () Int)
(declare-fun lam14n3 () Int)
(declare-fun lam14n4 () Int)
(declare-fun lam14n5 () Int)
(declare-fun lam14n6 () Int)
(declare-fun lam14n7 () Int)
(declare-fun lam15n0 () Int)
(declare-fun lam15n1 () Int)
(declare-fun lam15n2 () Int)
(declare-fun lam15n3 () Int)
(declare-fun lam15n4 () Int)
(declare-fun lam15n5 () Int)
(declare-fun lam16n0 () Int)
(declare-fun lam16n1 () Int)
(declare-fun lam16n2 () Int)
(declare-fun lam16n3 () Int)
(declare-fun lam16n4 () Int)
(declare-fun lam16n5 () Int)
(declare-fun lam16n6 () Int)
(declare-fun lam16n7 () Int)
(declare-fun lam16n8 () Int)
(declare-fun lam17n0 () Int)
(declare-fun lam17n1 () Int)
(declare-fun lam17n2 () Int)
(declare-fun lam17n3 () Int)
(declare-fun lam17n4 () Int)
(declare-fun lam17n5 () Int)
(declare-fun lam17n6 () Int)
(declare-fun lam17n7 () Int)
(declare-fun lam18n0 () Int)
(declare-fun lam18n1 () Int)
(declare-fun lam18n2 () Int)
(declare-fun lam18n3 () Int)
(declare-fun lam18n4 () Int)
(declare-fun lam18n5 () Int)
(declare-fun lam19n0 () Int)
(declare-fun lam19n1 () Int)
(declare-fun lam19n2 () Int)
(declare-fun lam19n3 () Int)
(declare-fun lam19n4 () Int)
(declare-fun lam19n5 () Int)
(declare-fun lam19n6 () Int)
(declare-fun lam19n7 () Int)
(declare-fun lam20n0 () Int)
(declare-fun lam20n1 () Int)
(declare-fun lam20n2 () Int)
(declare-fun lam20n3 () Int)
(declare-fun lam20n4 () Int)
(declare-fun lam20n5 () Int)
(declare-fun lam20n6 () Int)
(declare-fun lam20n7 () Int)
(declare-fun lam21n0 () Int)
(declare-fun lam21n1 () Int)
(declare-fun lam21n2 () Int)
(declare-fun lam21n3 () Int)
(declare-fun lam21n4 () Int)
(declare-fun lam21n5 () Int)
(declare-fun FV_main_x_2 () Int)
(declare-fun FV_main_y_2 () Int)
(assert ( and ( <= ( - 1 ) Nl2main_x1 ) ( <= Nl2main_x1 1 ) ( <= ( - 1 ) Nl2main_y1 ) ( <= Nl2main_y1 1 ) ( <= ( - 1 ) Nl2main_x2 ) ( <= Nl2main_x2 1 ) ( <= ( - 1 ) Nl2main_y2 ) ( <= Nl2main_y2 1 ) ))
(assert ( or ( and ( >= lam0n0 0 ) ( >= lam0n1 0 ) ( >= lam0n2 0 ) ( >= lam0n3 0 ) ( >= lam0n4 0 ) ( >= lam0n5 0 ) ( >= lam0n6 0 ) ( >= lam0n7 0 ) ( >= lam0n8 0 ) ( > ( + ( * ( - 4 ) lam0n0 ) ( * ( - 7 ) lam0n1 ) ( * ( - 6 ) lam0n2 ) ( * ( - 11 ) lam0n3 ) ( * ( - 10 ) lam0n4 ) ( * ( - 19 ) lam0n5 ) ( * ( - 18 ) lam0n6 ) ( * Nl2CT1 lam0n7 ) ( * Nl2CT2 lam0n8 ) ( - 1 ) ) 0 ) ( = ( + ( * 1 lam0n0 ) ( * 1 lam0n1 ) ( * ( - 1 ) lam0n3 ) ( * ( - 1 ) lam0n4 ) ( * ( - 1 ) lam0n5 ) ( * Nl2main_x1 lam0n7 ) ( * Nl2main_x2 lam0n8 ) ) 0 ) ( = ( + ( * ( - 1 ) lam0n1 ) ( * ( - 1 ) lam0n2 ) ( * ( - 1 ) lam0n3 ) ( * 1 lam0n5 ) ( * 1 lam0n6 ) ( * Nl2main_y1 lam0n7 ) ( * Nl2main_y2 lam0n8 ) ) 0 ) ) ( and ( >= lam1n0 0 ) ( >= lam1n1 0 ) ( >= lam1n2 0 ) ( >= lam1n3 0 ) ( >= lam1n4 0 ) ( >= lam1n5 0 ) ( >= lam1n6 0 ) ( >= lam1n7 0 ) ( >= lam1n8 0 ) ( > ( + ( * ( - 4 ) lam1n0 ) ( * ( - 7 ) lam1n1 ) ( * ( - 6 ) lam1n2 ) ( * ( - 11 ) lam1n3 ) ( * ( - 10 ) lam1n4 ) ( * ( - 19 ) lam1n5 ) ( * ( - 18 ) lam1n6 ) ( * Nl2CT1 lam1n7 ) ( * Nl2CT2 lam1n8 ) ( - 1 ( + ( + Nl2CT1 ( * Nl2main_x1 0 ) ) ( * Nl2main_y1 0 ) ) ) ) 0 ) ( = ( + ( * 1 lam1n0 ) ( * 1 lam1n1 ) ( * ( - 1 ) lam1n3 ) ( * ( - 1 ) lam1n4 ) ( * ( - 1 ) lam1n5 ) ( * Nl2main_x1 lam1n7 ) ( * Nl2main_x2 lam1n8 ) ( - ( + ( + 0 ( * Nl2main_x1 1 ) ) ( * Nl2main_y1 1 ) ) ) ) 0 ) ( = ( + ( * ( - 1 ) lam1n1 ) ( * ( - 1 ) lam1n2 ) ( * ( - 1 ) lam1n3 ) ( * 1 lam1n5 ) ( * 1 lam1n6 ) ( * Nl2main_y1 lam1n7 ) ( * Nl2main_y2 lam1n8 ) ( - ( + ( + 0 ( * Nl2main_x1 ( - 1 ) ) ) ( * Nl2main_y1 1 ) ) ) ) 0 ) ) ))
(assert ( or ( and ( >= lam0n0 0 ) ( >= lam0n1 0 ) ( >= lam0n2 0 ) ( >= lam0n3 0 ) ( >= lam0n4 0 ) ( >= lam0n5 0 ) ( >= lam0n6 0 ) ( >= lam0n7 0 ) ( >= lam0n8 0 ) ( > ( + ( * ( - 4 ) lam0n0 ) ( * ( - 7 ) lam0n1 ) ( * ( - 6 ) lam0n2 ) ( * ( - 11 ) lam0n3 ) ( * ( - 10 ) lam0n4 ) ( * ( - 19 ) lam0n5 ) ( * ( - 18 ) lam0n6 ) ( * Nl2CT1 lam0n7 ) ( * Nl2CT2 lam0n8 ) ( - 1 ) ) 0 ) ( = ( + ( * 1 lam0n0 ) ( * 1 lam0n1 ) ( * ( - 1 ) lam0n3 ) ( * ( - 1 ) lam0n4 ) ( * ( - 1 ) lam0n5 ) ( * Nl2main_x1 lam0n7 ) ( * Nl2main_x2 lam0n8 ) ) 0 ) ( = ( + ( * ( - 1 ) lam0n1 ) ( * ( - 1 ) lam0n2 ) ( * ( - 1 ) lam0n3 ) ( * 1 lam0n5 ) ( * 1 lam0n6 ) ( * Nl2main_y1 lam0n7 ) ( * Nl2main_y2 lam0n8 ) ) 0 ) ) ( and ( >= lam2n0 0 ) ( >= lam2n1 0 ) ( >= lam2n2 0 ) ( >= lam2n3 0 ) ( >= lam2n4 0 ) ( >= lam2n5 0 ) ( >= lam2n6 0 ) ( >= lam2n7 0 ) ( >= lam2n8 0 ) ( > ( + ( * ( - 4 ) lam2n0 ) ( * ( - 7 ) lam2n1 ) ( * ( - 6 ) lam2n2 ) ( * ( - 11 ) lam2n3 ) ( * ( - 10 ) lam2n4 ) ( * ( - 19 ) lam2n5 ) ( * ( - 18 ) lam2n6 ) ( * Nl2CT1 lam2n7 ) ( * Nl2CT2 lam2n8 ) ( - 1 ( + ( + Nl2CT2 ( * Nl2main_x2 0 ) ) ( * Nl2main_y2 0 ) ) ) ) 0 ) ( = ( + ( * 1 lam2n0 ) ( * 1 lam2n1 ) ( * ( - 1 ) lam2n3 ) ( * ( - 1 ) lam2n4 ) ( * ( - 1 ) lam2n5 ) ( * Nl2main_x1 lam2n7 ) ( * Nl2main_x2 lam2n8 ) ( - ( + ( + 0 ( * Nl2main_x2 1 ) ) ( * Nl2main_y2 1 ) ) ) ) 0 ) ( = ( + ( * ( - 1 ) lam2n1 ) ( * ( - 1 ) lam2n2 ) ( * ( - 1 ) lam2n3 ) ( * 1 lam2n5 ) ( * 1 lam2n6 ) ( * Nl2main_y1 lam2n7 ) ( * Nl2main_y2 lam2n8 ) ( - ( + ( + 0 ( * Nl2main_x2 ( - 1 ) ) ) ( * Nl2main_y2 1 ) ) ) ) 0 ) ) ))
(assert ( and ( <= ( + Nl2CT1 ( * Nl2main_x1 FV_main_x_1 ) ( * Nl2main_y1 FV_main_y_1 ) ) 0 ) ( <= ( + Nl2CT2 ( * Nl2main_x2 FV_main_x_1 ) ( * Nl2main_y2 FV_main_y_1 ) ) 0 ) ))
(assert ( or ( and ( >= lam5n0 0 ) ( >= lam5n1 0 ) ( >= lam5n2 0 ) ( >= lam5n3 0 ) ( >= lam5n4 0 ) ( >= lam5n5 0 ) ( > ( + ( * 5 lam5n0 ) ( * 8 lam5n1 ) ( * ( - 6 ) lam5n2 ) ( * ( - 11 ) lam5n3 ) ( * Nl2CT1 lam5n4 ) ( * Nl2CT2 lam5n5 ) ( - 1 ) ) 0 ) ( = ( + ( * ( - 1 ) lam5n0 ) ( * ( - 1 ) lam5n1 ) ( * ( - 1 ) lam5n3 ) ( * Nl2main_x1 lam5n4 ) ( * Nl2main_x2 lam5n5 ) ) 0 ) ( = ( + ( * 1 lam5n1 ) ( * ( - 1 ) lam5n2 ) ( * ( - 1 ) lam5n3 ) ( * Nl2main_y1 lam5n4 ) ( * Nl2main_y2 lam5n5 ) ) 0 ) ) ( and ( >= lam6n0 0 ) ( >= lam6n1 0 ) ( >= lam6n2 0 ) ( >= lam6n3 0 ) ( >= lam6n4 0 ) ( > ( + ( * 5 lam6n0 ) ( * 8 lam6n1 ) ( * 7 lam6n2 ) ( * Nl2CT1 lam6n3 ) ( * Nl2CT2 lam6n4 ) ( - 1 ) ) 0 ) ( = ( + ( * ( - 1 ) lam6n0 ) ( * ( - 1 ) lam6n1 ) ( * Nl2main_x1 lam6n3 ) ( * Nl2main_x2 lam6n4 ) ) 0 ) ( = ( + ( * 1 lam6n1 ) ( * 1 lam6n2 ) ( * Nl2main_y1 lam6n3 ) ( * Nl2main_y2 lam6n4 ) ) 0 ) ) ( and ( >= lam7n0 0 ) ( >= lam7n1 0 ) ( >= lam7n2 0 ) ( >= lam7n3 0 ) ( >= lam7n4 0 ) ( >= lam7n5 0 ) ( >= lam7n6 0 ) ( > ( + ( * 5 lam7n0 ) ( * ( - 7 ) lam7n1 ) ( * ( - 6 ) lam7n2 ) ( * ( - 11 ) lam7n3 ) ( * ( - 19 ) lam7n4 ) ( * Nl2CT1 lam7n5 ) ( * Nl2CT2 lam7n6 ) ( - 1 ) ) 0 ) ( = ( + ( * ( - 1 ) lam7n0 ) ( * 1 lam7n1 ) ( * ( - 1 ) lam7n3 ) ( * ( - 1 ) lam7n4 ) ( * Nl2main_x1 lam7n5 ) ( * Nl2main_x2 lam7n6 ) ) 0 ) ( = ( + ( * ( - 1 ) lam7n1 ) ( * ( - 1 ) lam7n2 ) ( * ( - 1 ) lam7n3 ) ( * 1 lam7n4 ) ( * Nl2main_y1 lam7n5 ) ( * Nl2main_y2 lam7n6 ) ) 0 ) ) ( and ( >= lam8n0 0 ) ( >= lam8n1 0 ) ( >= lam8n2 0 ) ( >= lam8n3 0 ) ( >= lam8n4 0 ) ( >= lam8n5 0 ) ( > ( + ( * 5 lam8n0 ) ( * ( - 11 ) lam8n1 ) ( * 20 lam8n2 ) ( * 19 lam8n3 ) ( * Nl2CT1 lam8n4 ) ( * Nl2CT2 lam8n5 ) ( - 1 ) ) 0 ) ( = ( + ( * ( - 1 ) lam8n0 ) ( * ( - 1 ) lam8n1 ) ( * 1 lam8n2 ) ( * Nl2main_x1 lam8n4 ) ( * Nl2main_x2 lam8n5 ) ) 0 ) ( = ( + ( * ( - 1 ) lam8n1 ) ( * ( - 1 ) lam8n2 ) ( * ( - 1 ) lam8n3 ) ( * Nl2main_y1 lam8n4 ) ( * Nl2main_y2 lam8n5 ) ) 0 ) ) ( and ( >= lam9n0 0 ) ( >= lam9n1 0 ) ( >= lam9n2 0 ) ( >= lam9n3 0 ) ( >= lam9n4 0 ) ( >= lam9n5 0 ) ( >= lam9n6 0 ) ( >= lam9n7 0 ) ( > ( + ( * ( - 4 ) lam9n0 ) ( * 8 lam9n1 ) ( * ( - 6 ) lam9n2 ) ( * ( - 11 ) lam9n3 ) ( * ( - 10 ) lam9n4 ) ( * ( - 18 ) lam9n5 ) ( * Nl2CT1 lam9n6 ) ( * Nl2CT2 lam9n7 ) ( - 1 ) ) 0 ) ( = ( + ( * 1 lam9n0 ) ( * ( - 1 ) lam9n1 ) ( * ( - 1 ) lam9n3 ) ( * ( - 1 ) lam9n4 ) ( * Nl2main_x1 lam9n6 ) ( * Nl2main_x2 lam9n7 ) ) 0 ) ( = ( + ( * 1 lam9n1 ) ( * ( - 1 ) lam9n2 ) ( * ( - 1 ) lam9n3 ) ( * 1 lam9n5 ) ( * Nl2main_y1 lam9n6 ) ( * Nl2main_y2 lam9n7 ) ) 0 ) ) ( and ( >= lam10n0 0 ) ( >= lam10n1 0 ) ( >= lam10n2 0 ) ( >= lam10n3 0 ) ( >= lam10n4 0 ) ( >= lam10n5 0 ) ( >= lam10n6 0 ) ( > ( + ( * ( - 4 ) lam10n0 ) ( * 8 lam10n1 ) ( * 7 lam10n2 ) ( * ( - 11 ) lam10n3 ) ( * ( - 10 ) lam10n4 ) ( * Nl2CT1 lam10n5 ) ( * Nl2CT2 lam10n6 ) ( - 1 ) ) 0 ) ( = ( + ( * 1 lam10n0 ) ( * ( - 1 ) lam10n1 ) ( * ( - 1 ) lam10n3 ) ( * ( - 1 ) lam10n4 ) ( * Nl2main_x1 lam10n5 ) ( * Nl2main_x2 lam10n6 ) ) 0 ) ( = ( + ( * 1 lam10n1 ) ( * 1 lam10n2 ) ( * ( - 1 ) lam10n3 ) ( * Nl2main_y1 lam10n5 ) ( * Nl2main_y2 lam10n6 ) ) 0 ) ) ( and ( >= lam11n0 0 ) ( >= lam11n1 0 ) ( >= lam11n2 0 ) ( >= lam11n3 0 ) ( >= lam11n4 0 ) ( >= lam11n5 0 ) ( > ( + ( * ( - 4 ) lam11n0 ) ( * 8 lam11n1 ) ( * 7 lam11n2 ) ( * 12 lam11n3 ) ( * Nl2CT1 lam11n4 ) ( * Nl2CT2 lam11n5 ) ( - 1 ) ) 0 ) ( = ( + ( * 1 lam11n0 ) ( * ( - 1 ) lam11n1 ) ( * 1 lam11n3 ) ( * Nl2main_x1 lam11n4 ) ( * Nl2main_x2 lam11n5 ) ) 0 ) ( = ( + ( * 1 lam11n1 ) ( * 1 lam11n2 ) ( * 1 lam11n3 ) ( * Nl2main_y1 lam11n4 ) ( * Nl2main_y2 lam11n5 ) ) 0 ) ) ( and ( >= lam12n0 0 ) ( >= lam12n1 0 ) ( >= lam12n2 0 ) ( >= lam12n3 0 ) ( >= lam12n4 0 ) ( >= lam12n5 0 ) ( >= lam12n6 0 ) ( >= lam12n7 0 ) ( > ( + ( * ( - 4 ) lam12n0 ) ( * ( - 7 ) lam12n1 ) ( * ( - 11 ) lam12n2 ) ( * ( - 10 ) lam12n3 ) ( * 19 lam12n4 ) ( * ( - 19 ) lam12n5 ) ( * Nl2CT1 lam12n6 ) ( * Nl2CT2 lam12n7 ) ( - 1 ) ) 0 ) ( = ( + ( * 1 lam12n0 ) ( * 1 lam12n1 ) ( * ( - 1 ) lam12n2 ) ( * ( - 1 ) lam12n3 ) ( * ( - 1 ) lam12n5 ) ( * Nl2main_x1 lam12n6 ) ( * Nl2main_x2 lam12n7 ) ) 0 ) ( = ( + ( * ( - 1 ) lam12n1 ) ( * ( - 1 ) lam12n2 ) ( * ( - 1 ) lam12n4 ) ( * 1 lam12n5 ) ( * Nl2main_y1 lam12n6 ) ( * Nl2main_y2 lam12n7 ) ) 0 ) ) ( and ( >= lam13n0 0 ) ( >= lam13n1 0 ) ( >= lam13n2 0 ) ( >= lam13n3 0 ) ( >= lam13n4 0 ) ( >= lam13n5 0 ) ( >= lam13n6 0 ) ( > ( + ( * ( - 4 ) lam13n0 ) ( * ( - 6 ) lam13n1 ) ( * ( - 11 ) lam13n2 ) ( * ( - 10 ) lam13n3 ) ( * 20 lam13n4 ) ( * Nl2CT1 lam13n5 ) ( * Nl2CT2 lam13n6 ) ( - 1 ) ) 0 ) ( = ( + ( * 1 lam13n0 ) ( * ( - 1 ) lam13n2 ) ( * ( - 1 ) lam13n3 ) ( * 1 lam13n4 ) ( * Nl2main_x1 lam13n5 ) ( * Nl2main_x2 lam13n6 ) ) 0 ) ( = ( + ( * ( - 1 ) lam13n1 ) ( * ( - 1 ) lam13n2 ) ( * ( - 1 ) lam13n4 ) ( * Nl2main_y1 lam13n5 ) ( * Nl2main_y2 lam13n6 ) ) 0 ) ) ( and ( >= lam14n0 0 ) ( >= lam14n1 0 ) ( >= lam14n2 0 ) ( >= lam14n3 0 ) ( >= lam14n4 0 ) ( >= lam14n5 0 ) ( >= lam14n6 0 ) ( >= lam14n7 0 ) ( > ( + ( * ( - 7 ) lam14n0 ) ( * ( - 6 ) lam14n1 ) ( * 11 lam14n2 ) ( * ( - 11 ) lam14n3 ) ( * ( - 19 ) lam14n4 ) ( * ( - 18 ) lam14n5 ) ( * Nl2CT1 lam14n6 ) ( * Nl2CT2 lam14n7 ) ( - 1 ) ) 0 ) ( = ( + ( * 1 lam14n0 ) ( * 1 lam14n2 ) ( * ( - 1 ) lam14n3 ) ( * ( - 1 ) lam14n4 ) ( * Nl2main_x1 lam14n6 ) ( * Nl2main_x2 lam14n7 ) ) 0 ) ( = ( + ( * ( - 1 ) lam14n0 ) ( * ( - 1 ) lam14n1 ) ( * ( - 1 ) lam14n3 ) ( * 1 lam14n4 ) ( * 1 lam14n5 ) ( * Nl2main_y1 lam14n6 ) ( * Nl2main_y2 lam14n7 ) ) 0 ) ) ( and ( >= lam15n0 0 ) ( >= lam15n1 0 ) ( >= lam15n2 0 ) ( >= lam15n3 0 ) ( >= lam15n4 0 ) ( >= lam15n5 0 ) ( > ( + ( * ( - 6 ) lam15n0 ) ( * 11 lam15n1 ) ( * ( - 11 ) lam15n2 ) ( * 20 lam15n3 ) ( * Nl2CT1 lam15n4 ) ( * Nl2CT2 lam15n5 ) ( - 1 ) ) 0 ) ( = ( + ( * 1 lam15n1 ) ( * ( - 1 ) lam15n2 ) ( * 1 lam15n3 ) ( * Nl2main_x1 lam15n4 ) ( * Nl2main_x2 lam15n5 ) ) 0 ) ( = ( + ( * ( - 1 ) lam15n0 ) ( * ( - 1 ) lam15n2 ) ( * ( - 1 ) lam15n3 ) ( * Nl2main_y1 lam15n4 ) ( * Nl2main_y2 lam15n5 ) ) 0 ) ) ( and ( >= lam16n0 0 ) ( >= lam16n1 0 ) ( >= lam16n2 0 ) ( >= lam16n3 0 ) ( >= lam16n4 0 ) ( >= lam16n5 0 ) ( >= lam16n6 0 ) ( >= lam16n7 0 ) ( >= lam16n8 0 ) ( > ( + ( * ( - 4 ) lam16n0 ) ( * ( - 7 ) lam16n1 ) ( * ( - 6 ) lam16n2 ) ( * 12 lam16n3 ) ( * ( - 10 ) lam16n4 ) ( * ( - 19 ) lam16n5 ) ( * ( - 18 ) lam16n6 ) ( * Nl2CT1 lam16n7 ) ( * Nl2CT2 lam16n8 ) ( - 1 ) ) 0 ) ( = ( + ( * 1 lam16n0 ) ( * 1 lam16n1 ) ( * 1 lam16n3 ) ( * ( - 1 ) lam16n4 ) ( * ( - 1 ) lam16n5 ) ( * Nl2main_x1 lam16n7 ) ( * Nl2main_x2 lam16n8 ) ) 0 ) ( = ( + ( * ( - 1 ) lam16n1 ) ( * ( - 1 ) lam16n2 ) ( * 1 lam16n3 ) ( * 1 lam16n5 ) ( * 1 lam16n6 ) ( * Nl2main_y1 lam16n7 ) ( * Nl2main_y2 lam16n8 ) ) 0 ) ) ( and ( >= lam17n0 0 ) ( >= lam17n1 0 ) ( >= lam17n2 0 ) ( >= lam17n3 0 ) ( >= lam17n4 0 ) ( >= lam17n5 0 ) ( >= lam17n6 0 ) ( >= lam17n7 0 ) ( > ( + ( * ( - 7 ) lam17n0 ) ( * ( - 6 ) lam17n1 ) ( * 12 lam17n2 ) ( * 11 lam17n3 ) ( * ( - 19 ) lam17n4 ) ( * ( - 18 ) lam17n5 ) ( * Nl2CT1 lam17n6 ) ( * Nl2CT2 lam17n7 ) ( - 1 ) ) 0 ) ( = ( + ( * 1 lam17n0 ) ( * 1 lam17n2 ) ( * 1 lam17n3 ) ( * ( - 1 ) lam17n4 ) ( * Nl2main_x1 lam17n6 ) ( * Nl2main_x2 lam17n7 ) ) 0 ) ( = ( + ( * ( - 1 ) lam17n0 ) ( * ( - 1 ) lam17n1 ) ( * 1 lam17n2 ) ( * 1 lam17n4 ) ( * 1 lam17n5 ) ( * Nl2main_y1 lam17n6 ) ( * Nl2main_y2 lam17n7 ) ) 0 ) ) ( and ( >= lam18n0 0 ) ( >= lam18n1 0 ) ( >= lam18n2 0 ) ( >= lam18n3 0 ) ( >= lam18n4 0 ) ( >= lam18n5 0 ) ( > ( + ( * ( - 6 ) lam18n0 ) ( * 12 lam18n1 ) ( * 11 lam18n2 ) ( * 20 lam18n3 ) ( * Nl2CT1 lam18n4 ) ( * Nl2CT2 lam18n5 ) ( - 1 ) ) 0 ) ( = ( + ( * 1 lam18n1 ) ( * 1 lam18n2 ) ( * 1 lam18n3 ) ( * Nl2main_x1 lam18n4 ) ( * Nl2main_x2 lam18n5 ) ) 0 ) ( = ( + ( * ( - 1 ) lam18n0 ) ( * 1 lam18n1 ) ( * ( - 1 ) lam18n3 ) ( * Nl2main_y1 lam18n4 ) ( * Nl2main_y2 lam18n5 ) ) 0 ) ) ( and ( >= lam19n0 0 ) ( >= lam19n1 0 ) ( >= lam19n2 0 ) ( >= lam19n3 0 ) ( >= lam19n4 0 ) ( >= lam19n5 0 ) ( >= lam19n6 0 ) ( >= lam19n7 0 ) ( > ( + ( * ( - 4 ) lam19n0 ) ( * 7 lam19n1 ) ( * ( - 7 ) lam19n2 ) ( * ( - 11 ) lam19n3 ) ( * ( - 10 ) lam19n4 ) ( * ( - 19 ) lam19n5 ) ( * Nl2CT1 lam19n6 ) ( * Nl2CT2 lam19n7 ) ( - 1 ) ) 0 ) ( = ( + ( * 1 lam19n0 ) ( * 1 lam19n2 ) ( * ( - 1 ) lam19n3 ) ( * ( - 1 ) lam19n4 ) ( * ( - 1 ) lam19n5 ) ( * Nl2main_x1 lam19n6 ) ( * Nl2main_x2 lam19n7 ) ) 0 ) ( = ( + ( * 1 lam19n1 ) ( * ( - 1 ) lam19n2 ) ( * ( - 1 ) lam19n3 ) ( * 1 lam19n5 ) ( * Nl2main_y1 lam19n6 ) ( * Nl2main_y2 lam19n7 ) ) 0 ) ) ( and ( >= lam20n0 0 ) ( >= lam20n1 0 ) ( >= lam20n2 0 ) ( >= lam20n3 0 ) ( >= lam20n4 0 ) ( >= lam20n5 0 ) ( >= lam20n6 0 ) ( >= lam20n7 0 ) ( > ( + ( * ( - 4 ) lam20n0 ) ( * 7 lam20n1 ) ( * ( - 7 ) lam20n2 ) ( * 12 lam20n3 ) ( * ( - 10 ) lam20n4 ) ( * ( - 19 ) lam20n5 ) ( * Nl2CT1 lam20n6 ) ( * Nl2CT2 lam20n7 ) ( - 1 ) ) 0 ) ( = ( + ( * 1 lam20n0 ) ( * 1 lam20n2 ) ( * 1 lam20n3 ) ( * ( - 1 ) lam20n4 ) ( * ( - 1 ) lam20n5 ) ( * Nl2main_x1 lam20n6 ) ( * Nl2main_x2 lam20n7 ) ) 0 ) ( = ( + ( * 1 lam20n1 ) ( * ( - 1 ) lam20n2 ) ( * 1 lam20n3 ) ( * 1 lam20n5 ) ( * Nl2main_y1 lam20n6 ) ( * Nl2main_y2 lam20n7 ) ) 0 ) ) ( and ( >= lam21n0 0 ) ( >= lam21n1 0 ) ( >= lam21n2 0 ) ( >= lam21n3 0 ) ( >= lam21n4 0 ) ( >= lam21n5 0 ) ( > ( + ( * 7 lam21n0 ) ( * ( - 7 ) lam21n1 ) ( * 12 lam21n2 ) ( * 11 lam21n3 ) ( * Nl2CT1 lam21n4 ) ( * Nl2CT2 lam21n5 ) ( - 1 ) ) 0 ) ( = ( + ( * 1 lam21n1 ) ( * 1 lam21n2 ) ( * 1 lam21n3 ) ( * Nl2main_x1 lam21n4 ) ( * Nl2main_x2 lam21n5 ) ) 0 ) ( = ( + ( * 1 lam21n0 ) ( * ( - 1 ) lam21n1 ) ( * 1 lam21n2 ) ( * Nl2main_y1 lam21n4 ) ( * Nl2main_y2 lam21n5 ) ) 0 ) ) ))
(assert ( and ( and ( <= ( + Nl2CT1 ( * Nl2main_x1 FV_main_x_2 ) ( * Nl2main_y1 FV_main_y_2 ) ) 0 ) ( <= ( + Nl2CT2 ( * Nl2main_x2 FV_main_x_2 ) ( * Nl2main_y2 FV_main_y_2 ) ) 0 ) ) ( and ( <= ( + ( - 4 ) FV_main_x_2 ) 0 ) ( <= ( + ( - 7 ) FV_main_x_2 ( * ( - 1 ) FV_main_y_2 ) ) 0 ) ( <= ( + ( - 6 ) ( * ( - 1 ) FV_main_y_2 ) ) 0 ) ( <= ( + ( - 11 ) ( * ( - 1 ) FV_main_x_2 ) ( * ( - 1 ) FV_main_y_2 ) ) 0 ) ( <= ( + ( - 10 ) ( * ( - 1 ) FV_main_x_2 ) ) 0 ) ( <= ( + ( - 19 ) ( * ( - 1 ) FV_main_x_2 ) FV_main_y_2 ) 0 ) ( <= ( + ( - 18 ) FV_main_y_2 ) 0 ) ) ))
(check-sat)
(exit)
